(set-logic ALL)
(declare-const content String)
(assert (not (< (str.len content) 0)))
(assert (not (= (+ 0 (str.indexof content "-" 0)) (- 1))))
(assert (not (< (+ 0 (str.indexof content "-" 0)) 0)))
(assert (not (< (+ (+ 0 (str.indexof content "-" 0)) 1) 0)))
(assert (< (str.len content) 0))
(check-sat)
(get-value (content))
